# ,P6 - Body Sizing Element Size [mm],P7 - Mesh Element Size [mm],P9 - Diameter [m],P10 - InwardThickness [m],P11 - Force 2 X Component [N],P12 - Force 2 Y Component [N],P2 - Total Deformation Maximum [mm],P4 - Equivalent Stress Maximum [MPa],P5 - Safety Factor Minimum,P8 - Solid Mass [kg]
DP 8,30,30,0.225,0.0085,337,16319,101.3888449,389.885624,1.290121946,81.22748812
DP 15,30,30,0.23,0.0085,337,16319,104.5924737,335.9521748,1.497236922,83.10341164
DP 20,30,30,0.2301,0.0085,337,16319,105.6008063,334.6328428,1.503139966,83.14093011
DP 26,30,30,0.22,0.0085,337,16319,134.4491112,1689.666712,0.297691844,79.35156461
DP 27,30,30,0.227,0.0085,337,16319,99.14131328,364.7205077,1.379138243,81.97785753
